sdopt/datagen/data/broyden.nl
g9 0 2 0 16 20140524 0 1 0 1	# problem broyden
 16 16 0 0 16	# vars, constraints, objectives, ranges, eqns
 16 0	# nonlinear constraints, objectives
 0 0	# network constraints: nonlinear, linear
 16 0 0	# nonlinear vars in constraints, objectives, both
 0 0 0 1	# linear network variables; functions; arith, flags
 0 0 0 0 0	# discrete variables: binary, integer, nonlinear (b,c,o)
 96 0	# nonzeros in Jacobian, gradients
 7 5	# max name lengths: constraints, variables
 0 0 0 0 0	# common exprs: b,c,o,c1,o1
C0
o54
3
o2
n5
o5
v0
n3
o16
o5
v0
n2
o16
o5
v1
n2
C1
o16
o54
4
o16
o2
n5
o5
v1
n3
o5
v0
n2
o5
v1
n2
o5
v2
n2
C2
o16
o54
5
o16
o2
n5
o5
v2
n3
o5
v0
n2
o5
v1
n2
o5
v2
n2
o5
v3
n2
C3
o16
o54
6
o16
o2
n5
o5
v3
n3
o5
v0
n2
o5
v1
n2
o5
v2
n2
o5
v3
n2
o5
v4
n2
C4
o16
o54
7
o16
o2
n5
o5
v4
n3
o5
v0
n2
o5
v1
n2
o5
v2
n2
o5
v3
n2
o5
v4
n2
o5
v5
n2
C5
o16
o54
8
o16
o2
n5
o5
v5
n3
o5
v0
n2
o5
v1
n2
o5
v2
n2
o5
v3
n2
o5
v4
n2
o5
v5
n2
o5
v6
n2
C6
o16
o54
8
o16
o2
n5
o5
v6
n3
o5
v1
n2
o5
v2
n2
o5
v3
n2
o5
v4
n2
o5
v5
n2
o5
v6
n2
o5
v7
n2
C7
o16
o54
8
o16
o2
n5
o5
v7
n3
o5
v2
n2
o5
v3
n2
o5
v4
n2
o5
v5
n2
o5
v6
n2
o5
v7
n2
o5
v8
n2
C8
o16
o54
8
o16
o2
n5
o5
v8
n3
o5
v3
n2
o5
v4
n2
o5
v5
n2
o5
v6
n2
o5
v7
n2
o5
v8
n2
o5
v9
n2
C9
o16
o54
8
o16
o2
n5
o5
v9
n3
o5
v4
n2
o5
v5
n2
o5
v6
n2
o5
v7
n2
o5
v8
n2
o5
v9
n2
o5
v10
n2
C10
o16
o54
8
o16
o2
n5
o5
v10
n3
o5
v5
n2
o5
v6
n2
o5
v7
n2
o5
v8
n2
o5
v9
n2
o5
v10
n2
o5
v11
n2
C11
o16
o54
8
o16
o2
n5
o5
v11
n3
o5
v6
n2
o5
v7
n2
o5
v8
n2
o5
v9
n2
o5
v10
n2
o5
v11
n2
o5
v12
n2
C12
o16
o54
8
o16
o2
n5
o5
v12
n3
o5
v7
n2
o5
v8
n2
o5
v9
n2
o5
v10
n2
o5
v11
n2
o5
v12
n2
o5
v13
n2
C13
o16
o54
8
o16
o2
n5
o5
v13
n3
o5
v8
n2
o5
v9
n2
o5
v10
n2
o5
v11
n2
o5
v12
n2
o5
v13
n2
o5
v14
n2
C14
o16
o54
8
o16
o2
n5
o5
v14
n3
o5
v9
n2
o5
v10
n2
o5
v11
n2
o5
v12
n2
o5
v13
n2
o5
v14
n2
o5
v15
n2
C15
o16
o54
7
o16
o2
n5
o5
v15
n3
o5
v10
n2
o5
v11
n2
o5
v12
n2
o5
v13
n2
o5
v14
n2
o5
v15
n2
d16
0 0
1 0
2 0
3 0
4 0
5 0
6 0
7 0
8 0
9 0
10 0
11 0
12 0
13 0
14 0
15 0
x16
0 -0.477446285098725
1 -0.520433482442136
2 -0.558370943009135
3 -0.592117117250195
4 -0.62230124877159
5 -0.650541249094133
6 -0.648055016625447
7 -0.645614708220959
8 -0.643573559963035
9 -0.642165324775287
10 -0.641534421218548
11 -0.641838340629904
12 -0.642048212981229
13 -0.642138128758668
14 -0.643065534204966
15 -0.614079591979722
r
4 -1
4 -1
4 -1
4 -1
4 -1
4 -1
4 -1
4 -1
4 -1
4 -1
4 -1
4 -1
4 -1
4 -1
4 -1
4 -1
b
0 -100 101
0 -100 101
0 -100 101
0 -100 101
0 -100 101
0 -100 101
0 -100 101
0 -100 101
0 -100 101
0 -100 101
0 -100 101
0 -100 101
0 -100 101
0 -100 101
0 -100 101
0 -100 101
k15
6
13
20
27
34
41
48
55
62
69
76
82
87
91
94
J0 2
0 1
1 -1
J1 3
0 -1
1 1
2 -1
J2 4
0 -1
1 -1
2 1
3 -1
J3 5
0 -1
1 -1
2 -1
3 1
4 -1
J4 6
0 -1
1 -1
2 -1
3 -1
4 1
5 -1
J5 7
0 -1
1 -1
2 -1
3 -1
4 -1
5 1
6 -1
J6 7
1 -1
2 -1
3 -1
4 -1
5 -1
6 1
7 -1
J7 7
2 -1
3 -1
4 -1
5 -1
6 -1
7 1
8 -1
J8 7
3 -1
4 -1
5 -1
6 -1
7 -1
8 1
9 -1
J9 7
4 -1
5 -1
6 -1
7 -1
8 -1
9 1
10 -1
J10 7
5 -1
6 -1
7 -1
8 -1
9 -1
10 1
11 -1
J11 7
6 -1
7 -1
8 -1
9 -1
10 -1
11 1
12 -1
J12 7
7 -1
8 -1
9 -1
10 -1
11 -1
12 1
13 -1
J13 7
8 -1
9 -1
10 -1
11 -1
12 -1
13 1
14 -1
J14 7
9 -1
10 -1
11 -1
12 -1
13 -1
14 1
15 -1
J15 6
10 -1
11 -1
12 -1
13 -1
14 -1
15 1
