sdopt/datagen/data/broyden.log

16 variables, all nonlinear
16 constraints, all nonlinear; 96 nonzeros
	16 equality constraints
0 objectives.

ignore this line 96
@@@ Problem statistics
constraints: 16 variables: 16 nonzeros: 96
Variable vector:
22.451020307115613
-61.83551634297389
85.30030244175268
92.38829597688601
-78.7491102004305
43.535355977185645
10.857945810650762
-47.10985048432956
-29.729565130878427
-18.143434626370393
33.7075601029934
15.737253148673474
89.34633259598584
-26.931550126631066
-99.37916023323864
51.87526554046397

Residual vector:
52339.60167804395
-1193953.4189477195
3083179.272296321
3916731.7987643117
-2470278.219465982
384188.78572180594
-23690.537107137345
-550062.6912777399
-151596.06097517203
-42595.53110078089
184722.69052241105
6548.44612293102
3552793.353723876
-118867.05218503028
-4930683.353276932
675374.0942734634

gjh: "broyden.gjh" written.  Execute
 
	include "broyden.gjh"
	remove "broyden.gjh";
